NAME : amtsp
TYPE : ATSP
DIMENSION : 12
EDGE_WEIGHT_TYPE : EXPLICIT
EDGE_WEIGHT_FORMAT : FULL_MATRIX
EDGE_WEIGHT_SECTION
0 280 201010 201662 201878 201225 201995 202509 203326 202957 202903 201914 
0 0 197 489 781 680 1125 1218 2046 1759 2184 1684 
0 197 0 335 585 563 1000 1037 1825 1495 1963 1195 
0 489 335 0 500 754 1118 1000 1500 2010 2520 1414 
0 781 585 500 0 499 707 500 1000 1118 1414 1118 
0 680 563 754 499 0 445 661 1063 945 1077 684 
0 1125 1000 1118 707 445 0 500 707 500 707 500 
0 1218 1037 1000 500 661 500 0 500 707 1118 1000 
0 2046 1825 1500 1000 1063 707 500 0 500 1000 1118 
0 1759 1495 2010 1118 945 500 707 500 0 500 707 
0 2184 1963 2520 1414 1077 707 1118 1000 500 0 500 
0 1684 1195 1414 1118 684 500 1000 1118 707 500 0 
